(declare-const x Int)
(declare-const rad  Real)
(assert (not (and (>= (sin (div (* x 3.14) 180.0)) 0.0) (>= (cos (div (* x 3.14) 180.0)) 0.0))))
(assert (not (and (>= (sin (div (* x 3.14) 180.0)) 0.0) (< (cos (div (* x 3.14) 180.0)) 0.0))))
(assert (not (and (< (sin (div (* x 3.14) 180.0)) 0.0) (>= (cos (div (* x 3.14) 180.0)) 0.0))))
(check-sat)
(model)
